\ENCODING=ISO-8859-1
\Problem name: IloCplex

Minimize
 obj: 124 y(0) + 91 y(1) + 62 y(2) + 127 y(3) + 107 y(4) + 47 y(5) + 104 y(6)
      + 113 y(7) + 65 y(8) + 106 y(9) + 113 y(10) + 68 y(11) + 131 y(12)
      + 126 y(13) + 24 y(14) + 124 y(15) + 126 y(16) + 47 y(17) + 105 y(18)
      + 126 y(19) + 65 y(20) + 91 y(21) + 150 y(22) + 49 y(23) + 107 y(24)
      + 131 y(25) + 53 y(26) + 113 y(27) + 124 y(28) + 31 y(29) + 113 y(30)
      + 127 y(31) + 37 y(32) + 126 y(33) + 106 y(34) + 58 y(35) + 134 y(36)
      + 124 y(37) + 36 y(38) + 150 y(39) + 105 y(40) + 39 y(41) + 131 y(42)
      + 105 y(43) + 71 y(44)
Subject To
 c1:  y(0) + y(5) + y(8) + y(10) + y(13) + y(16) + y(19) + y(22) + y(25)
      + y(28) + y(30) + y(33) + y(36) + y(39) + y(42)  = 1
 c2:  y(0) + y(5) + y(8) + y(10) + y(13) + y(16) + y(19) + y(22) + y(25)
      + y(28) + y(30) + y(33) + y(36) + y(39) + y(42)  = 1
 c3:  y(0) + y(5) + y(8) + y(10) + y(13) + y(16) + y(19) + y(22) + y(25)
      + y(28) + y(30) + y(33) + y(36) + y(39) + y(42)  = 1
 c4:  y(0) + y(3) + y(6) + y(11) + y(13) + y(16) + y(19) + y(22) + y(25)
      + y(28) + y(31) + y(33) + y(36) + y(39) + y(42)  = 1
 c5:  y(0) + y(3) + y(6) + y(11) + y(13) + y(16) + y(19) + y(22) + y(25)
      + y(28) + y(31) + y(33) + y(36) + y(39) + y(42)  = 1
 c6:  y(0) + y(3) + y(6) + y(11) + y(13) + y(16) + y(19) + y(22) + y(25)
      + y(28) + y(31) + y(33) + y(36) + y(39) + y(42)  = 1
 c7:  y(0) + y(3) + y(8) + y(11) + y(13) + y(16) + y(19) + y(22) + y(25)
      + y(28) + y(31) + y(33) + y(36) + y(39) + y(42)  = 1
 c8:  y(0) + y(3) + y(8) + y(11) + y(13) + y(16) + y(19) + y(22) + y(25)
      + y(28) + y(31) + y(33) + y(36) + y(39) + y(42)  = 1
 c9:  y(0) + y(3) + y(8) + y(11) + y(13) + y(16) + y(19) + y(22) + y(25)
      + y(28) + y(31) + y(33) + y(36) + y(39) + y(42)  = 1
 c10: y(1) + y(4) + y(7) + y(9) + y(12) + y(15) + y(18) + y(21) + y(24) + y(27)
      + y(32) + y(34) + y(37) + y(40) + y(43)  = 1
 c11: y(1) + y(4) + y(7) + y(9) + y(12) + y(15) + y(18) + y(21) + y(24) + y(27)
      + y(32) + y(34) + y(37) + y(40) + y(43)  = 1
 c12: y(1) + y(4) + y(7) + y(9) + y(12) + y(15) + y(18) + y(21) + y(24) + y(27)
      + y(32) + y(34) + y(37) + y(40) + y(43)  = 1
 c13: y(1) + y(3) + y(6) + y(9) + y(12) + y(15) + y(18) + y(21) + y(26) + y(29)
      + y(31) + y(34) + y(37) + y(40) + y(43)  = 1
 c14: y(1) + y(3) + y(6) + y(9) + y(12) + y(15) + y(18) + y(21) + y(26) + y(29)
      + y(31) + y(34) + y(37) + y(40) + y(43)  = 1
 c15: y(1) + y(3) + y(6) + y(9) + y(12) + y(15) + y(18) + y(21) + y(26) + y(29)
      + y(31) + y(34) + y(37) + y(40) + y(43)  = 1
 c16: y(1) + y(4) + y(7) + y(10) + y(13) + y(16) + y(19) + y(21) + y(24)
      + y(27) + y(30) + y(33) + y(36) + y(41) + y(44)  = 1
 c17: y(1) + y(4) + y(7) + y(10) + y(13) + y(16) + y(19) + y(21) + y(24)
      + y(27) + y(30) + y(33) + y(36) + y(41) + y(44)  = 1
 c18: y(1) + y(4) + y(7) + y(10) + y(13) + y(16) + y(19) + y(21) + y(24)
      + y(27) + y(30) + y(33) + y(36) + y(41) + y(44)  = 1
 c19: y(2) + y(4) + y(7) + y(10) + y(13) + y(16) + y(19) + y(22) + y(24)
      + y(27) + y(30) + y(33) + y(36) + y(39) + y(44)  = 1
 c20: y(2) + y(4) + y(7) + y(10) + y(13) + y(16) + y(19) + y(22) + y(24)
      + y(27) + y(30) + y(33) + y(36) + y(39) + y(44)  = 1
 c21: y(2) + y(4) + y(7) + y(10) + y(13) + y(16) + y(19) + y(22) + y(24)
      + y(27) + y(30) + y(33) + y(36) + y(39) + y(44)  = 1
 c22: y(2) + y(5) + y(7) + y(10) + y(13) + y(16) + y(19) + y(22) + y(25)
      + y(27) + y(30) + y(33) + y(36) + y(39) + y(42)  = 1
 c23: y(2) + y(5) + y(7) + y(10) + y(13) + y(16) + y(19) + y(22) + y(25)
      + y(27) + y(30) + y(33) + y(36) + y(39) + y(42)  = 1
 c24: y(2) + y(5) + y(7) + y(10) + y(13) + y(16) + y(19) + y(22) + y(25)
      + y(27) + y(30) + y(33) + y(36) + y(39) + y(42)  = 1
 c25: y(0) + y(3) + y(6) + y(9) + y(12) + y(17) + y(20) + y(22) + y(25) + y(28)
      + y(31) + y(34) + y(36) + y(39) + y(42)  = 1
 c26: y(0) + y(3) + y(6) + y(9) + y(12) + y(17) + y(20) + y(22) + y(25) + y(28)
      + y(31) + y(34) + y(36) + y(39) + y(42)  = 1
 c27: y(0) + y(3) + y(6) + y(9) + y(12) + y(17) + y(20) + y(22) + y(25) + y(28)
      + y(31) + y(34) + y(36) + y(39) + y(42)  = 1
 c28: y(0) + y(3) + y(6) + y(9) + y(12) + y(15) + y(20) + y(22) + y(25) + y(28)
      + y(31) + y(34) + y(37) + y(39) + y(42)  = 1
 c29: y(0) + y(3) + y(6) + y(9) + y(12) + y(15) + y(20) + y(22) + y(25) + y(28)
      + y(31) + y(34) + y(37) + y(39) + y(42)  = 1
 c30: y(0) + y(3) + y(6) + y(9) + y(12) + y(15) + y(20) + y(22) + y(25) + y(28)
      + y(31) + y(34) + y(37) + y(39) + y(42)  = 1
 c31: y(0) + y(3) + y(6) + y(9) + y(14) + y(17) + y(20) + y(22) + y(25) + y(28)
      + y(31) + y(34) + y(36) + y(39) + y(42)  = 1
 c32: y(0) + y(3) + y(6) + y(9) + y(14) + y(17) + y(20) + y(22) + y(25) + y(28)
      + y(31) + y(34) + y(36) + y(39) + y(42)  = 1
 c33: y(0) + y(3) + y(6) + y(9) + y(14) + y(17) + y(20) + y(22) + y(25) + y(28)
      + y(31) + y(34) + y(36) + y(39) + y(42)  = 1
 c34: y(1) + y(4) + y(6) + y(9) + y(12) + y(15) + y(18) + y(21) + y(24) + y(29)
      + y(32) + y(34) + y(37) + y(40) + y(43)  = 1
 c35: y(1) + y(4) + y(6) + y(9) + y(12) + y(15) + y(18) + y(21) + y(24) + y(29)
      + y(32) + y(34) + y(37) + y(40) + y(43)  = 1
 c36: y(1) + y(4) + y(6) + y(9) + y(12) + y(15) + y(18) + y(21) + y(24) + y(29)
      + y(32) + y(34) + y(37) + y(40) + y(43)  = 1
 c37: y(1) + y(4) + y(7) + y(10) + y(12) + y(15) + y(18) + y(21) + y(24)
      + y(27) + y(30) + y(35) + y(37) + y(40) + y(43)  = 1
 c38: y(1) + y(4) + y(7) + y(10) + y(12) + y(15) + y(18) + y(21) + y(24)
      + y(27) + y(30) + y(35) + y(37) + y(40) + y(43)  = 1
 c39: y(1) + y(4) + y(7) + y(10) + y(12) + y(15) + y(18) + y(21) + y(24)
      + y(27) + y(30) + y(35) + y(37) + y(40) + y(43)  = 1
 c40: y(1) + y(4) + y(7) + y(10) + y(13) + y(16) + y(19) + y(21) + y(24)
      + y(27) + y(30) + y(33) + y(38) + y(41) + y(44)  = 1
 c41: y(1) + y(4) + y(7) + y(10) + y(13) + y(16) + y(19) + y(21) + y(24)
      + y(27) + y(30) + y(33) + y(38) + y(41) + y(44)  = 1
 c42: y(1) + y(4) + y(7) + y(10) + y(13) + y(16) + y(19) + y(21) + y(24)
      + y(27) + y(30) + y(33) + y(38) + y(41) + y(44)  = 1
 c43: y(0) + y(3) + y(6) + y(9) + y(12) + y(15) + y(18) + y(23) + y(26) + y(28)
      + y(31) + y(34) + y(37) + y(40) + y(43)  = 1
 c44: y(0) + y(3) + y(6) + y(9) + y(12) + y(15) + y(18) + y(23) + y(26) + y(28)
      + y(31) + y(34) + y(37) + y(40) + y(43)  = 1
 c45: y(0) + y(3) + y(6) + y(9) + y(12) + y(15) + y(18) + y(23) + y(26) + y(28)
      + y(31) + y(34) + y(37) + y(40) + y(43)  = 1
 c46: y(0) + y(1) + y(2) + y(3) + y(4) + y(5) + y(6) + y(7) + y(8) + y(9)
      + y(10) + y(11) + y(12) + y(13) + y(14) + y(15) + y(16) + y(17) + y(18)
      + y(19) + y(20) + y(21) + y(22) + y(23) + y(24) + y(25) + y(26) + y(27)
      + y(28) + y(29) + y(30) + y(31) + y(32) + y(33) + y(34) + y(35) + y(36)
      + y(37) + y(38) + y(39) + y(40) + y(41) + y(42) + y(43) + y(44) >= 2
 c47: y(0) + y(1) + y(2) + y(3) + y(4) + y(5) + y(6) + y(7) + y(8) + y(9)
      + y(10) + y(11) + y(12) + y(13) + y(14) + y(15) + y(16) + y(17) + y(18)
      + y(19) + y(20) + y(21) + y(22) + y(23) + y(24) + y(25) + y(26) + y(27)
      + y(28) + y(29) + y(30) + y(31) + y(32) + y(33) + y(34) + y(35) + y(36)
      + y(37) + y(38) + y(39) + y(40) + y(41) + y(42) + y(43) + y(44) <= 4
Bounds
 0 <= y(0) <= 1
 0 <= y(1) <= 1
 0 <= y(2) <= 1
 0 <= y(3) <= 1
 0 <= y(4) <= 1
 0 <= y(5) <= 1
 0 <= y(6) <= 1
 0 <= y(7) <= 1
 0 <= y(8) <= 1
 0 <= y(9) <= 1
 0 <= y(10) <= 1
 0 <= y(11) <= 1
 0 <= y(12) <= 1
 0 <= y(13) <= 1
 0 <= y(14) <= 1
 0 <= y(15) <= 1
 0 <= y(16) <= 1
 0 <= y(17) <= 1
 0 <= y(18) <= 1
 0 <= y(19) <= 1
 0 <= y(20) <= 1
 0 <= y(21) <= 1
 0 <= y(22) <= 1
 0 <= y(23) <= 1
 0 <= y(24) <= 1
 0 <= y(25) <= 1
 0 <= y(26) <= 1
 0 <= y(27) <= 1
 0 <= y(28) <= 1
 0 <= y(29) <= 1
 0 <= y(30) <= 1
 0 <= y(31) <= 1
 0 <= y(32) <= 1
 0 <= y(33) <= 1
 0 <= y(34) <= 1
 0 <= y(35) <= 1
 0 <= y(36) <= 1
 0 <= y(37) <= 1
 0 <= y(38) <= 1
 0 <= y(39) <= 1
 0 <= y(40) <= 1
 0 <= y(41) <= 1
 0 <= y(42) <= 1
 0 <= y(43) <= 1
 0 <= y(44) <= 1
Binaries
 y(0)  y(1)  y(2)  y(3)  y(4)  y(5)  y(6)  y(7)  y(8)  y(9)  y(10)  y(11) 
 y(12)  y(13)  y(14)  y(15)  y(16)  y(17)  y(18)  y(19)  y(20)  y(21)  y(22) 
 y(23)  y(24)  y(25)  y(26)  y(27)  y(28)  y(29)  y(30)  y(31)  y(32)  y(33) 
 y(34)  y(35)  y(36)  y(37)  y(38)  y(39)  y(40)  y(41)  y(42)  y(43)  y(44) 
End
